2
100 2
31
22 1 2
23 1 2
27 1 1
31 1 1
33 1 1
35 1 2
41 1 1
43 1 1
44 1 1
45 1 1
47 1 1
49 1 3
50 1 1
51 1 2
59 1 1
62 1 1
63 1 1
65 1 3
70 1 1
71 1 2
79 1 1
81 1 2
83 1 1
84 1 5
85 1 2
86 1 1
87 1 1
90 1 4
94 1 2
96 1 1
99 1 1
